50	100	100	100
23	18	4
31	17	9
21	17	8
22	23	24
8	16	15
4	10	22
21	16	34
8	7	21
17	9	19
2	25	11
24	26	13
24	7	8
3	11	5
30	13	33
13	1	22
32	5	32
18	27	6
15	24	21
14	24	7
26	31	26
29	7	18
27	13	18
28	5	30
11	2	14
30	18	18
1	23	15
11	4	20
14	12	26
14	31	18
13	1	26
30	18	26
18	26	18
27	4	31
27	10	12
4	20	5
19	31	9
19	2	15
8	34	19
7	27	9
15	32	26
25	8	24
3	15	21
19	30	14
8	24	25
12	21	31
3	7	12
17	19	21
34	14	11
2	34	8
6	21	16
